
Gurobi 10.0.1 (win64) logging started Wed Jan 15 21:29:23 2025

Set parameter LogFile to value "result/origin100/grblog_constrainedNL_strongFalse_logSum100_pnr_origin100_I300_J30_p15_inst7_machineDESKTOP-ASQ3AP9.txt"

Gurobi 10.0.1 (win64) logging started Wed Jan 15 21:29:23 2025

Set parameter LogFile to value "result/origin100/grblog_constrainedNL_strongFalse_logSum100_pnr_origin100_I300_J30_p15_inst7_machineDESKTOP-ASQ3AP9.txt"
Set parameter LazyConstraints to value 1
Gurobi Optimizer version 10.0.1 build v10.0.1rc0 (win64)

CPU model: Intel(R) Core(TM) i7-7700 CPU @ 3.60GHz, instruction set [SSE2|AVX|AVX2]
Thread count: 4 physical cores, 8 logical processors, using up to 8 threads

Optimize a model with 65275 rows, 9360 columns and 192044 nonzeros
Model fingerprint: 0x683b51b8
Variable types: 9330 continuous, 30 integer (30 binary)
Coefficient statistics:
  Matrix range     [8e-09, 1e+08]
  Objective range  [1e+00, 1e+00]
  Bounds range     [1e+00, 1e+00]
  RHS range        [1e+00, 6e+02]
Warning: Model contains large matrix coefficient range
         Consider reformulating model or setting NumericFocus parameter
         to avoid numerical issues.

User MIP start produced solution with objective 2098.17 (0.07s)
Loaded user MIP start with objective 2098.17

Presolve removed 10559 rows and 5265 columns
Presolve time: 0.29s
Presolved: 54716 rows, 4095 columns, 166556 nonzeros
Variable types: 4065 continuous, 30 integer (30 binary)
Root relaxation presolved: 54716 rows, 4095 columns, 166556 nonzeros


Root relaxation: objective 4.787000e+03, 769 iterations, 0.27 seconds (1.03 work units)

    Nodes    |    Current Node    |     Objective Bounds      |     Work
 Expl Unexpl |  Obj  Depth IntInf | Incumbent    BestBd   Gap | It/Node Time

     0     0 4787.00000    0   25 2098.17494 4787.00000   128%     -    5s
     0     0 4074.01437    0   24 2098.17494 4074.01437  94.2%     -   26s
     0     0 3718.95172    0   22 2098.17494 3718.95172  77.2%     -   40s
     0     0 3697.75050    0   21 2098.17494 3697.75050  76.2%     -   44s
     0     0 3697.74559    0   21 2098.17494 3697.74559  76.2%     -   44s
     0     0 3372.84790    0   21 2098.17494 3372.84790  60.8%     -   56s
     0     0 3143.39500    0   21 2098.17494 3143.39500  49.8%     -   66s
     0     0 3088.76299    0   21 2098.17494 3088.76299  47.2%     -   69s
     0     0 3084.28870    0   21 2098.17494 3084.28870  47.0%     -   70s
     0     0 3084.26254    0   21 2098.17494 3084.26254  47.0%     -   70s
     0     0 2928.44661    0   22 2098.17494 2928.44661  39.6%     -   80s
     0     0 2913.70535    0   22 2098.17494 2913.70535  38.9%     -   83s
     0     0 2911.11150    0   22 2098.17494 2911.11150  38.7%     -   84s
     0     0 2910.92111    0   22 2098.17494 2910.92111  38.7%     -   84s
     0     0 2837.50152    0   24 2098.17494 2837.50152  35.2%     -   91s
     0     0 2824.07482    0   23 2098.17494 2824.07482  34.6%     -   95s
     0     0 2817.68228    0   23 2098.17494 2817.68228  34.3%     -   97s
     0     0 2815.34984    0   23 2098.17494 2815.34984  34.2%     -   98s
     0     0 2814.77540    0   23 2098.17494 2814.77540  34.2%     -   99s
     0     0 2814.69338    0   23 2098.17494 2814.69338  34.1%     -   99s
     0     0 2790.92831    0   23 2098.17494 2790.92831  33.0%     -  103s
     0     0 2786.14303    0   24 2098.17494 2786.14303  32.8%     -  107s
     0     0 2783.35149    0   24 2098.17494 2783.35149  32.7%     -  107s
     0     0 2783.16466    0   24 2098.17494 2783.16466  32.6%     -  108s
     0     0 2764.08919    0   25 2098.17494 2764.08919  31.7%     -  112s
     0     0 2761.86678    0   25 2098.17494 2761.86678  31.6%     -  115s
     0     0 2761.66684    0   25 2098.17494 2761.66684  31.6%     -  115s
     0     0 2746.94310    0   25 2098.17494 2746.94310  30.9%     -  119s
     0     0 2743.20638    0   25 2098.17494 2743.20638  30.7%     -  121s
     0     0 2742.39688    0   25 2098.17494 2742.39688  30.7%     -  121s
     0     0 2742.29507    0   25 2098.17494 2742.29507  30.7%     -  122s
     0     0 2697.57198    0   26 2098.17494 2697.57198  28.6%     -  126s
     0     0 2690.50460    0   26 2098.17494 2690.50460  28.2%     -  128s
     0     0 2689.20956    0   26 2098.17494 2689.20956  28.2%     -  128s
     0     0 2688.75093    0   26 2098.17494 2688.75093  28.1%     -  129s
     0     0 2679.36142    0   27 2098.17494 2679.36142  27.7%     -  132s
     0     0 2677.91887    0   28 2098.17494 2677.91887  27.6%     -  133s
     0     0 2677.52606    0   28 2098.17494 2677.52606  27.6%     -  133s
     0     0 2671.90519    0   29 2098.17494 2671.90519  27.3%     -  136s
     0     0 2669.74198    0   28 2098.17494 2669.74198  27.2%     -  137s
     0     0 2669.15738    0   29 2098.17494 2669.15738  27.2%     -  137s
     0     0 2669.10870    0   28 2098.17494 2669.10870  27.2%     -  138s
     0     0 2665.82714    0   28 2098.17494 2665.82714  27.1%     -  140s
     0     0 2665.24041    0   28 2098.17494 2665.24041  27.0%     -  141s
     0     0 2665.08533    0   28 2098.17494 2665.08533  27.0%     -  141s
     0     0 2661.22685    0   29 2098.17494 2661.22685  26.8%     -  143s
     0     0 2660.03014    0   29 2098.17494 2660.03014  26.8%     -  144s
     0     0 2659.76910    0   29 2098.17494 2659.76910  26.8%     -  145s
     0     0 2658.76877    0   29 2098.17494 2658.76877  26.7%     -  147s
     0     0 2651.19792    0   28 2098.17494 2651.19792  26.4%     -  164s
     0     2 2651.19792    0   28 2098.17494 2651.19792  26.4%     -  184s
     1     4 2559.49257    1   26 2098.17494 2651.19792  26.4%  2846  191s
     3     8 2419.38087    2   25 2098.17494 2559.46418  22.0%  4435  199s
     7    12 2119.03143    3   24 2098.17494 2418.97330  15.3%  4005  203s
    11    16 2298.36284    3   24 2098.17494 2298.36284  9.54%  2987  206s
    19    22     cutoff    4      2098.17494 2277.43407  8.54%  2878  219s
    23    26     cutoff    5      2098.17494 2277.43407  8.54%  2727  224s
    29    29     cutoff    5      2098.17494 2277.43407  8.54%  2417  229s
    34    35 2160.33490    8   16 2098.17494 2277.43407  8.54%  2393  233s
    40    39 2125.75775    9   17 2098.17494 2277.43407  8.54%  2154  238s
    46    38 2125.64763   10   16 2098.17494 2277.43407  8.54%  2038  241s
    60    39     cutoff   11      2098.17494 2277.07748  8.53%  1792  249s
    70    35     cutoff    5      2098.17494 2277.07748  8.53%  1781  258s
    76    33     cutoff    4      2098.17494 2277.07748  8.53%  1899  264s
    80    37     cutoff   12      2098.17494 2276.01958  8.48%  1917  271s
    88    34 2203.69895    6   20 2098.17494 2275.94454  8.47%  1870  275s
    96    38 2174.72117    7   19 2098.17494 2275.94454  8.47%  1814  280s
   102    44 2194.31184    5   17 2098.17494 2251.77039  7.32%  1853  285s
   115    44     cutoff    8      2098.17494 2251.77039  7.32%  1710  290s
   126    42     cutoff    8      2098.17494 2251.77039  7.32%  1639  296s
   137    41     cutoff    7      2098.17494 2240.25086  6.77%  1605  305s
   150    47 2135.24714    7   18 2098.17494 2240.25086  6.77%  1603  313s
   172    39     cutoff    8      2098.17494 2240.25086  6.77%  1484  319s
   186    38     cutoff    9      2098.17494 2240.25086  6.77%  1443  326s
   195    36 2143.85511    6   19 2098.17494 2240.25086  6.77%  1458  332s
   203    37 2112.17556    7   19 2098.17494 2227.16262  6.15%  1473  339s
   216    37 2115.88565    7   16 2098.17494 2227.16262  6.15%  1471  346s
   230    30     cutoff   12      2098.17494 2224.96007  6.04%  1455  354s
   241    27 2127.08234    5   23 2098.17494 2204.39505  5.06%  1471  362s
   248    24     cutoff    6      2098.17494 2204.30654  5.06%  1510  371s
   260    33 2143.24247    8   12 2098.17494 2194.31184  4.58%  1516  377s
   293    27     cutoff   12      2098.17494 2184.99270  4.14%  1419  385s
   329     7 2117.11188    8   12 2098.17494 2125.67335  1.31%  1322  395s
*  336     7              19    2098.1799788 2125.62942  1.31%  1319  395s

Cutting planes:
  Implied bound: 92
  MIR: 238
  Flow cover: 229
  RLT: 653
  Relax-and-lift: 79
  Lazy constraints: 1360

Explored 363 nodes (593052 simplex iterations) in 396.43 seconds (1657.53 work units)
Thread count was 8 (of 8 available processors)

Solution count 1: 2098.18 

Optimal solution found (tolerance 1.00e-04)
Best objective 2.098179978835e+03, best bound 2.098179978835e+03, gap 0.0000%

User-callback calls 16848, time in user-callback 0.41 sec
